p cnf 405 1360
1 0
-2 0
-3 0
-4 0
-5 0
-6 0
-7 0
-8 0
-9 0
-10 0
-11 0
12 13 14 15 0
-12 -13 0
-12 -14 0
-12 -15 0
-13 -14 0
-13 -15 0
-14 -15 0
16 -1 -17 0
1 -16 -17 0
-16 -1 17 0
1 16 17 0
-12 -17 0
1 -16 -18 0
16 -1 -18 0
18 -1 -16 0
18 1 16 0
-13 18 0
-1 19 0
-16 19 0
1 16 -19 0
1 -19 -20 0
-1 19 -20 0
-1 -19 20 0
1 19 20 0
-14 20 0
16 21 0
1 21 0
-16 -1 -21 0
-1 21 -22 0
1 -21 -22 0
22 -21 -1 0
1 21 22 0
-15 -22 0
23 -2 -24 0
2 -23 -24 0
-23 -2 24 0
2 23 24 0
-12 -24 0
2 -25 -26 0
25 -2 -26 0
26 -2 -25 0
26 2 25 0
-13 26 0
-23 27 0
-25 27 0
-28 27 0
23 25 28 -27 0
2 -27 -29 0
-2 27 -29 0
-2 -27 29 0
2 27 29 0
-14 29 0
23 30 0
25 30 0
28 30 0
-23 -25 -28 -30 0
-2 30 -31 0
2 -30 -31 0
31 -30 -2 0
2 30 31 0
-15 -31 0
25 -32 -33 0
32 -25 -33 0
-25 -32 33 0
25 32 33 0
-12 -33 0
32 -28 -34 0
28 -32 -34 0
34 -32 -28 0
34 32 28 0
-13 34 0
-25 35 0
-28 35 0
25 28 -35 0
32 -35 -36 0
-32 35 -36 0
-32 -35 36 0
32 35 36 0
-14 36 0
25 37 0
28 37 0
-25 -28 -37 0
-32 37 -38 0
32 -37 -38 0
38 -37 -32 0
32 37 38 0
-15 -38 0
28 -39 -40 0
39 -28 -40 0
-28 -39 40 0
28 39 40 0
-12 -40 0
-25 39 -41 0
25 -39 -41 0
41 -39 -25 0
41 39 25 0
-13 41 0
-28 42 0
-32 42 0
28 32 -42 0
39 -42 -43 0
-39 42 -43 0
-39 -42 43 0
39 42 43 0
-14 43 0
28 44 0
32 44 0
-28 -32 -44 0
-39 44 -45 0
39 -44 -45 0
45 -44 -39 0
39 44 45 0
-15 -45 0
46 -3 -47 0
3 -46 -47 0
-46 -3 47 0
3 46 47 0
-12 -47 0
3 -48 -49 0
48 -3 -49 0
49 -3 -48 0
49 3 48 0
-13 49 0
-23 50 0
-25 50 0
-28 50 0
-46 50 0
-48 50 0
23 25 28 46 48 -50 0
3 -50 -51 0
-3 50 -51 0
-3 -50 51 0
3 50 51 0
-14 51 0
23 52 0
25 52 0
28 52 0
46 52 0
48 52 0
-53 0
-3 52 -54 0
3 -52 -54 0
54 -52 -3 0
3 52 54 0
-15 -54 0
48 -55 -56 0
55 -48 -56 0
-48 -55 56 0
48 55 56 0
-12 -56 0
-23 55 -57 0
23 -55 -57 0
57 -55 -23 0
57 55 23 0
-13 57 0
-23 58 0
-25 58 0
-28 58 0
-48 58 0
23 25 28 48 -58 0
55 -58 -59 0
-55 58 -59 0
-55 -58 59 0
55 58 59 0
-14 59 0
23 60 0
25 60 0
28 60 0
48 60 0
-61 0
-55 60 -62 0
55 -60 -62 0
62 -60 -55 0
55 60 62 0
-15 -62 0
63 -4 -64 0
4 -63 -64 0
-63 -4 64 0
4 63 64 0
-12 -64 0
4 -65 -66 0
65 -4 -66 0
66 -4 -65 0
66 4 65 0
-13 66 0
-63 67 0
-65 67 0
-68 67 0
-69 67 0
-70 67 0
-71 67 0
63 65 68 69 70 71 -67 0
4 -67 -72 0
-4 67 -72 0
-4 -67 72 0
4 67 72 0
-14 72 0
63 73 0
65 73 0
68 73 0
69 73 0
70 73 0
71 73 0
-74 0
-4 73 -75 0
4 -73 -75 0
75 -73 -4 0
4 73 75 0
-15 -75 0
65 -76 -77 0
76 -65 -77 0
-65 -76 77 0
65 76 77 0
-12 -77 0
76 -68 -78 0
68 -76 -78 0
78 -76 -68 0
78 76 68 0
-13 78 0
-65 79 0
-68 79 0
-69 79 0
-70 79 0
-71 79 0
65 68 69 70 71 -79 0
76 -79 -80 0
-76 79 -80 0
-76 -79 80 0
76 79 80 0
-14 80 0
65 81 0
68 81 0
69 81 0
70 81 0
71 81 0
-82 0
-76 81 -83 0
76 -81 -83 0
83 -81 -76 0
76 81 83 0
-15 -83 0
68 -84 -85 0
84 -68 -85 0
-68 -84 85 0
68 84 85 0
-12 -85 0
84 -69 -86 0
69 -84 -86 0
86 -84 -69 0
86 84 69 0
-13 86 0
-68 87 0
-69 87 0
-70 87 0
-71 87 0
68 69 70 71 -87 0
84 -87 -88 0
-84 87 -88 0
-84 -87 88 0
84 87 88 0
-14 88 0
68 89 0
69 89 0
70 89 0
71 89 0
-90 0
-84 89 -91 0
84 -89 -91 0
91 -89 -84 0
84 89 91 0
-15 -91 0
69 -92 -93 0
92 -69 -93 0
-69 -92 93 0
69 92 93 0
-12 -93 0
92 -70 -94 0
70 -92 -94 0
94 -92 -70 0
94 92 70 0
-13 94 0
92 -87 -95 0
-92 87 -95 0
-92 -87 95 0
92 87 95 0
-14 95 0
-92 89 -96 0
92 -89 -96 0
96 -89 -92 0
92 89 96 0
-15 -96 0
70 -97 -98 0
97 -70 -98 0
-70 -97 98 0
70 97 98 0
-12 -98 0
97 -71 -99 0
71 -97 -99 0
99 -97 -71 0
99 97 71 0
-13 99 0
-70 100 0
-71 100 0
-68 100 0
-69 100 0
70 71 68 69 -100 0
97 -100 -101 0
-97 100 -101 0
-97 -100 101 0
97 100 101 0
-14 101 0
70 102 0
71 102 0
68 102 0
69 102 0
-103 0
-97 102 -104 0
97 -102 -104 0
104 -102 -97 0
97 102 104 0
-15 -104 0
71 -105 -106 0
105 -71 -106 0
-71 -105 106 0
71 105 106 0
-12 -106 0
-68 105 -107 0
68 -105 -107 0
107 -105 -68 0
107 105 68 0
-13 107 0
-71 108 0
-84 108 0
71 84 -108 0
105 -108 -109 0
-105 108 -109 0
-105 -108 109 0
105 108 109 0
-14 109 0
71 110 0
84 110 0
-71 -84 -110 0
-105 110 -111 0
105 -110 -111 0
111 -110 -105 0
105 110 111 0
-15 -111 0
112 -5 -113 0
5 -112 -113 0
-112 -5 113 0
5 112 113 0
-12 -113 0
5 -114 -115 0
114 -5 -115 0
115 -5 -114 0
115 5 114 0
-13 115 0
-112 116 0
-114 116 0
-117 116 0
-118 116 0
-119 116 0
-120 116 0
121 0
5 -116 -122 0
-5 116 -122 0
-5 -116 122 0
5 116 122 0
-14 122 0
112 123 0
114 123 0
117 123 0
118 123 0
119 123 0
120 123 0
-124 0
-5 123 -125 0
5 -123 -125 0
125 -123 -5 0
5 123 125 0
-15 -125 0
114 -126 -127 0
126 -114 -127 0
-114 -126 127 0
114 126 127 0
-12 -127 0
126 -117 -128 0
117 -126 -128 0
128 -126 -117 0
128 126 117 0
-13 128 0
-114 129 0
-117 129 0
-118 129 0
-119 129 0
-120 129 0
114 117 118 119 120 -129 0
126 -129 -130 0
-126 129 -130 0
-126 -129 130 0
126 129 130 0
-14 130 0
114 131 0
117 131 0
118 131 0
119 131 0
120 131 0
-132 0
-126 131 -133 0
126 -131 -133 0
133 -131 -126 0
126 131 133 0
-15 -133 0
117 -134 -135 0
134 -117 -135 0
-117 -134 135 0
117 134 135 0
-12 -135 0
134 -118 -136 0
118 -134 -136 0
136 -134 -118 0
136 134 118 0
-13 136 0
-117 137 0
-118 137 0
-119 137 0
-120 137 0
117 118 119 120 -137 0
134 -137 -138 0
-134 137 -138 0
-134 -137 138 0
134 137 138 0
-14 138 0
117 139 0
118 139 0
119 139 0
120 139 0
-140 0
-134 139 -141 0
134 -139 -141 0
141 -139 -134 0
134 139 141 0
-15 -141 0
118 -142 -143 0
142 -118 -143 0
-118 -142 143 0
118 142 143 0
-12 -143 0
142 -119 -144 0
119 -142 -144 0
144 -142 -119 0
144 142 119 0
-13 144 0
142 -137 -145 0
-142 137 -145 0
-142 -137 145 0
142 137 145 0
-14 145 0
-142 139 -146 0
142 -139 -146 0
146 -139 -142 0
142 139 146 0
-15 -146 0
119 -147 -148 0
147 -119 -148 0
-119 -147 148 0
119 147 148 0
-12 -148 0
147 -120 -149 0
120 -147 -149 0
149 -147 -120 0
149 147 120 0
-13 149 0
147 -137 -150 0
-147 137 -150 0
-147 -137 150 0
147 137 150 0
-14 150 0
-147 139 -151 0
147 -139 -151 0
151 -139 -147 0
147 139 151 0
-15 -151 0
120 -152 -153 0
152 -120 -153 0
-120 -152 153 0
120 152 153 0
-12 -153 0
-117 152 -154 0
117 -152 -154 0
154 -152 -117 0
154 152 117 0
-13 154 0
-120 155 0
-134 155 0
120 134 -155 0
152 -155 -156 0
-152 155 -156 0
-152 -155 156 0
152 155 156 0
-14 156 0
120 157 0
134 157 0
-120 -134 -157 0
-152 157 -158 0
152 -157 -158 0
158 -157 -152 0
152 157 158 0
-15 -158 0
159 -6 -160 0
6 -159 -160 0
-159 -6 160 0
6 159 160 0
-12 -160 0
6 -161 -162 0
161 -6 -162 0
162 -6 -161 0
162 6 161 0
-13 162 0
-16 163 0
-159 163 0
-161 163 0
-164 163 0
16 159 161 164 -163 0
6 -163 -165 0
-6 163 -165 0
-6 -163 165 0
6 163 165 0
-14 165 0
16 166 0
159 166 0
161 166 0
164 166 0
-167 0
-6 166 -168 0
6 -166 -168 0
168 -166 -6 0
6 166 168 0
-15 -168 0
161 -169 -170 0
169 -161 -170 0
-161 -169 170 0
161 169 170 0
-12 -170 0
169 -164 -171 0
164 -169 -171 0
171 -169 -164 0
171 169 164 0
-13 171 0
-16 172 0
-161 172 0
-164 172 0
16 161 164 -172 0
169 -172 -173 0
-169 172 -173 0
-169 -172 173 0
169 172 173 0
-14 173 0
16 174 0
161 174 0
164 174 0
-16 -161 -164 -174 0
-169 174 -175 0
169 -174 -175 0
175 -174 -169 0
169 174 175 0
-15 -175 0
164 -176 -177 0
176 -164 -177 0
-164 -176 177 0
164 176 177 0
-12 -177 0
-16 176 -178 0
16 -176 -178 0
178 -176 -16 0
178 176 16 0
-13 178 0
-16 179 0
-164 179 0
16 164 -179 0
176 -179 -180 0
-176 179 -180 0
-176 -179 180 0
176 179 180 0
-14 180 0
16 181 0
164 181 0
-16 -164 -181 0
-176 181 -182 0
176 -181 -182 0
182 -181 -176 0
176 181 182 0
-15 -182 0
183 -7 -184 0
7 -183 -184 0
-183 -7 184 0
7 183 184 0
-12 -184 0
7 -185 -186 0
185 -7 -186 0
186 -7 -185 0
186 7 185 0
-13 186 0
-183 187 0
-185 187 0
-188 187 0
-189 187 0
-190 187 0
-191 187 0
192 0
7 -187 -193 0
-7 187 -193 0
-7 -187 193 0
7 187 193 0
-14 193 0
183 194 0
185 194 0
188 194 0
189 194 0
190 194 0
191 194 0
-195 0
-7 194 -196 0
7 -194 -196 0
196 -194 -7 0
7 194 196 0
-15 -196 0
185 -197 -198 0
197 -185 -198 0
-185 -197 198 0
185 197 198 0
-12 -198 0
197 -188 -199 0
188 -197 -199 0
199 -197 -188 0
199 197 188 0
-13 199 0
-185 200 0
-188 200 0
-189 200 0
-190 200 0
-191 200 0
185 188 189 190 191 -200 0
197 -200 -201 0
-197 200 -201 0
-197 -200 201 0
197 200 201 0
-14 201 0
185 202 0
188 202 0
189 202 0
190 202 0
191 202 0
-203 0
-197 202 -204 0
197 -202 -204 0
204 -202 -197 0
197 202 204 0
-15 -204 0
188 -205 -206 0
205 -188 -206 0
-188 -205 206 0
188 205 206 0
-12 -206 0
205 -189 -207 0
189 -205 -207 0
207 -205 -189 0
207 205 189 0
-13 207 0
-188 208 0
-189 208 0
-190 208 0
-191 208 0
188 189 190 191 -208 0
205 -208 -209 0
-205 208 -209 0
-205 -208 209 0
205 208 209 0
-14 209 0
188 210 0
189 210 0
190 210 0
191 210 0
-211 0
-205 210 -212 0
205 -210 -212 0
212 -210 -205 0
205 210 212 0
-15 -212 0
189 -213 -214 0
213 -189 -214 0
-189 -213 214 0
189 213 214 0
-12 -214 0
213 -190 -215 0
190 -213 -215 0
215 -213 -190 0
215 213 190 0
-13 215 0
-189 216 0
-190 216 0
-191 216 0
189 190 191 -216 0
213 -216 -217 0
-213 216 -217 0
-213 -216 217 0
213 216 217 0
-14 217 0
189 218 0
190 218 0
191 218 0
-189 -190 -191 -218 0
-213 218 -219 0
213 -218 -219 0
219 -218 -213 0
213 218 219 0
-15 -219 0
190 -220 -221 0
220 -190 -221 0
-190 -220 221 0
190 220 221 0
-12 -221 0
220 -191 -222 0
191 -220 -222 0
222 -220 -191 0
222 220 191 0
-13 222 0
220 -216 -223 0
-220 216 -223 0
-220 -216 223 0
220 216 223 0
-14 223 0
-220 218 -224 0
220 -218 -224 0
224 -218 -220 0
220 218 224 0
-15 -224 0
191 -225 -226 0
225 -191 -226 0
-191 -225 226 0
191 225 226 0
-12 -226 0
-189 225 -227 0
189 -225 -227 0
227 -225 -189 0
227 225 189 0
-13 227 0
-191 228 0
-213 228 0
191 213 -228 0
225 -228 -229 0
-225 228 -229 0
-225 -228 229 0
225 228 229 0
-14 229 0
191 230 0
213 230 0
-191 -213 -230 0
-225 230 -231 0
225 -230 -231 0
231 -230 -225 0
225 230 231 0
-15 -231 0
232 -8 -233 0
8 -232 -233 0
-232 -8 233 0
8 232 233 0
-12 -233 0
8 -234 -235 0
234 -8 -235 0
235 -8 -234 0
235 8 234 0
-13 235 0
-16 236 0
-161 236 0
-164 236 0
-232 236 0
-234 236 0
16 161 164 232 234 -236 0
8 -236 -237 0
-8 236 -237 0
-8 -236 237 0
8 236 237 0
-14 237 0
16 238 0
161 238 0
164 238 0
232 238 0
234 238 0
-239 0
-8 238 -240 0
8 -238 -240 0
240 -238 -8 0
8 238 240 0
-15 -240 0
234 -241 -242 0
241 -234 -242 0
-234 -241 242 0
234 241 242 0
-12 -242 0
-161 241 -243 0
161 -241 -243 0
243 -241 -161 0
243 241 161 0
-13 243 0
-16 244 0
-161 244 0
-164 244 0
-234 244 0
16 161 164 234 -244 0
241 -244 -245 0
-241 244 -245 0
-241 -244 245 0
241 244 245 0
-14 245 0
16 246 0
161 246 0
164 246 0
234 246 0
-247 0
-241 246 -248 0
241 -246 -248 0
248 -246 -241 0
241 246 248 0
-15 -248 0
249 -9 -250 0
9 -249 -250 0
-249 -9 250 0
9 249 250 0
-12 -250 0
9 -251 -252 0
251 -9 -252 0
252 -9 -251 0
252 9 251 0
-13 252 0
-188 253 0
-189 253 0
-190 253 0
-191 253 0
-249 253 0
-251 253 0
254 0
9 -253 -255 0
-9 253 -255 0
-9 -253 255 0
9 253 255 0
-14 255 0
188 256 0
189 256 0
190 256 0
191 256 0
249 256 0
251 256 0
-257 0
-9 256 -258 0
9 -256 -258 0
258 -256 -9 0
9 256 258 0
-15 -258 0
251 -259 -260 0
259 -251 -260 0
-251 -259 260 0
251 259 260 0
-12 -260 0
-188 259 -261 0
188 -259 -261 0
261 -259 -188 0
261 259 188 0
-13 261 0
-188 262 0
-189 262 0
-190 262 0
-191 262 0
-251 262 0
188 189 190 191 251 -262 0
259 -262 -263 0
-259 262 -263 0
-259 -262 263 0
259 262 263 0
-14 263 0
188 264 0
189 264 0
190 264 0
191 264 0
251 264 0
-265 0
-259 264 -266 0
259 -264 -266 0
266 -264 -259 0
259 264 266 0
-15 -266 0
267 -10 -268 0
10 -267 -268 0
-267 -10 268 0
10 267 268 0
-12 -268 0
10 -269 -270 0
269 -10 -270 0
270 -10 -269 0
270 10 269 0
-13 270 0
-117 271 0
-118 271 0
-119 271 0
-120 271 0
-267 271 0
-269 271 0
-272 271 0
-273 271 0
274 0
10 -271 -275 0
-10 271 -275 0
-10 -271 275 0
10 271 275 0
-14 275 0
117 276 0
118 276 0
119 276 0
120 276 0
267 276 0
269 276 0
272 276 0
273 276 0
-277 0
-10 276 -278 0
10 -276 -278 0
278 -276 -10 0
10 276 278 0
-15 -278 0
269 -279 -280 0
279 -269 -280 0
-269 -279 280 0
269 279 280 0
-12 -280 0
279 -272 -281 0
272 -279 -281 0
281 -279 -272 0
281 279 272 0
-13 281 0
-117 282 0
-118 282 0
-119 282 0
-120 282 0
-269 282 0
-272 282 0
-273 282 0
283 0
279 -282 -284 0
-279 282 -284 0
-279 -282 284 0
279 282 284 0
-14 284 0
117 285 0
118 285 0
119 285 0
120 285 0
269 285 0
272 285 0
273 285 0
-286 0
-279 285 -287 0
279 -285 -287 0
287 -285 -279 0
279 285 287 0
-15 -287 0
272 -288 -289 0
288 -272 -289 0
-272 -288 289 0
272 288 289 0
-12 -289 0
288 -273 -290 0
273 -288 -290 0
290 -288 -273 0
290 288 273 0
-13 290 0
-117 291 0
-118 291 0
-119 291 0
-120 291 0
-272 291 0
-273 291 0
292 0
288 -291 -293 0
-288 291 -293 0
-288 -291 293 0
288 291 293 0
-14 293 0
117 294 0
118 294 0
119 294 0
120 294 0
272 294 0
273 294 0
-295 0
-288 294 -296 0
288 -294 -296 0
296 -294 -288 0
288 294 296 0
-15 -296 0
273 -297 -298 0
297 -273 -298 0
-273 -297 298 0
273 297 298 0
-12 -298 0
-118 297 -299 0
118 -297 -299 0
299 -297 -118 0
299 297 118 0
-13 299 0
-117 300 0
-118 300 0
-119 300 0
-120 300 0
-273 300 0
117 118 119 120 273 -300 0
297 -300 -301 0
-297 300 -301 0
-297 -300 301 0
297 300 301 0
-14 301 0
117 302 0
118 302 0
119 302 0
120 302 0
273 302 0
-303 0
-297 302 -304 0
297 -302 -304 0
304 -302 -297 0
297 302 304 0
-15 -304 0
305 -11 -306 0
11 -305 -306 0
-305 -11 306 0
11 305 306 0
-12 -306 0
11 -307 -308 0
307 -11 -308 0
308 -11 -307 0
308 11 307 0
-13 308 0
-25 309 0
-28 309 0
-305 309 0
-307 309 0
-310 309 0
25 28 305 307 310 -309 0
11 -309 -311 0
-11 309 -311 0
-11 -309 311 0
11 309 311 0
-14 311 0
25 312 0
28 312 0
305 312 0
307 312 0
310 312 0
-313 0
-11 312 -314 0
11 -312 -314 0
314 -312 -11 0
11 312 314 0
-15 -314 0
307 -315 -316 0
315 -307 -316 0
-307 -315 316 0
307 315 316 0
-12 -316 0
315 -310 -317 0
310 -315 -317 0
317 -315 -310 0
317 315 310 0
-13 317 0
-25 318 0
-28 318 0
-307 318 0
-310 318 0
25 28 307 310 -318 0
315 -318 -319 0
-315 318 -319 0
-315 -318 319 0
315 318 319 0
-14 319 0
25 320 0
28 320 0
307 320 0
310 320 0
-321 0
-315 320 -322 0
315 -320 -322 0
322 -320 -315 0
315 320 322 0
-15 -322 0
310 -323 -324 0
323 -310 -324 0
-310 -323 324 0
310 323 324 0
-12 -324 0
-28 323 -325 0
28 -323 -325 0
325 -323 -28 0
325 323 28 0
-13 325 0
-25 326 0
-28 326 0
-310 326 0
25 28 310 -326 0
323 -326 -327 0
-323 326 -327 0
-323 -326 327 0
323 326 327 0
-14 327 0
25 328 0
28 328 0
310 328 0
-25 -28 -310 -328 0
-323 328 -329 0
323 -328 -329 0
329 -328 -323 0
323 328 329 0
-15 -329 0
-16 330 -331 0
16 -330 -331 0
-16 -330 331 0
16 330 331 0
-331 0
-23 332 -333 0
23 -332 -333 0
-23 -332 333 0
23 332 333 0
-333 0
-25 334 -335 0
25 -334 -335 0
-25 -334 335 0
25 334 335 0
-335 0
-28 336 -337 0
28 -336 -337 0
-28 -336 337 0
28 336 337 0
-337 0
-46 338 -339 0
46 -338 -339 0
-46 -338 339 0
46 338 339 0
-339 0
-48 340 -341 0
48 -340 -341 0
-48 -340 341 0
48 340 341 0
-341 0
-63 342 -343 0
63 -342 -343 0
-63 -342 343 0
63 342 343 0
-343 0
-65 344 -345 0
65 -344 -345 0
-65 -344 345 0
65 344 345 0
-345 0
-68 346 -347 0
68 -346 -347 0
-68 -346 347 0
68 346 347 0
-347 0
-69 348 -349 0
69 -348 -349 0
-69 -348 349 0
69 348 349 0
-349 0
-70 350 -351 0
70 -350 -351 0
-70 -350 351 0
70 350 351 0
-351 0
-71 352 -353 0
71 -352 -353 0
-71 -352 353 0
71 352 353 0
-353 0
-112 354 -355 0
112 -354 -355 0
-112 -354 355 0
112 354 355 0
-355 0
-114 356 -357 0
114 -356 -357 0
-114 -356 357 0
114 356 357 0
-357 0
-117 358 -359 0
117 -358 -359 0
-117 -358 359 0
117 358 359 0
-359 0
-118 360 -361 0
118 -360 -361 0
-118 -360 361 0
118 360 361 0
-361 0
-119 362 -363 0
119 -362 -363 0
-119 -362 363 0
119 362 363 0
-363 0
-120 364 -365 0
120 -364 -365 0
-120 -364 365 0
120 364 365 0
-365 0
-159 366 -367 0
159 -366 -367 0
-159 -366 367 0
159 366 367 0
-367 0
-161 368 -369 0
161 -368 -369 0
-161 -368 369 0
161 368 369 0
-369 0
-164 370 -371 0
164 -370 -371 0
-164 -370 371 0
164 370 371 0
-371 0
-183 372 -373 0
183 -372 -373 0
-183 -372 373 0
183 372 373 0
-373 0
-185 374 -375 0
185 -374 -375 0
-185 -374 375 0
185 374 375 0
-375 0
-188 376 -377 0
188 -376 -377 0
-188 -376 377 0
188 376 377 0
-377 0
-189 378 -379 0
189 -378 -379 0
-189 -378 379 0
189 378 379 0
-379 0
-190 380 -381 0
190 -380 -381 0
-190 -380 381 0
190 380 381 0
-381 0
-191 382 -383 0
191 -382 -383 0
-191 -382 383 0
191 382 383 0
-383 0
-232 384 -385 0
232 -384 -385 0
-232 -384 385 0
232 384 385 0
-385 0
-234 386 -387 0
234 -386 -387 0
-234 -386 387 0
234 386 387 0
-387 0
-249 388 -389 0
249 -388 -389 0
-249 -388 389 0
249 388 389 0
-389 0
-251 390 -391 0
251 -390 -391 0
-251 -390 391 0
251 390 391 0
-391 0
-267 392 -393 0
267 -392 -393 0
-267 -392 393 0
267 392 393 0
-393 0
-269 394 -395 0
269 -394 -395 0
-269 -394 395 0
269 394 395 0
-395 0
-272 396 -397 0
272 -396 -397 0
-272 -396 397 0
272 396 397 0
-397 0
-273 398 -399 0
273 -398 -399 0
-273 -398 399 0
273 398 399 0
-399 0
-305 400 -401 0
305 -400 -401 0
-305 -400 401 0
305 400 401 0
-401 0
-307 402 -403 0
307 -402 -403 0
-307 -402 403 0
307 402 403 0
-403 0
-310 404 -405 0
310 -404 -405 0
-310 -404 405 0
310 404 405 0
-405 0
-330 0
332 0
334 0
-336 0
-338 0
340 0
-342 0
-344 0
346 0
-348 0
-350 0
352 0
354 0
-356 0
-358 0
-360 0
-362 0
364 0
-366 0
-368 0
370 0
372 0
-374 0
-376 0
378 0
-380 0
382 0
384 0
386 0
-388 0
390 0
-392 0
-394 0
-396 0
398 0
400 0
402 0
-404 0
